CPXPARAM_Read_DataCheck                          1
Found incumbent of value 0.000000 after 0.00 sec. (0.05 ticks)
Tried aggregator 1 time.
MIP Presolve modified 1 coefficients.
Reduced MIP has 233 rows, 2010 columns, and 10034 nonzeros.
Reduced MIP has 2010 binaries, 0 generals, 0 SOSs, and 0 indicators.
Presolve time = 0.00 sec. (3.91 ticks)
Probing time = 0.02 sec. (3.12 ticks)
Tried aggregator 1 time.
Reduced MIP has 233 rows, 2010 columns, and 10034 nonzeros.
Reduced MIP has 2010 binaries, 0 generals, 0 SOSs, and 0 indicators.
Presolve time = 0.00 sec. (4.67 ticks)
Probing time = 0.00 sec. (3.06 ticks)
Clique table members: 6661.
MIP emphasis: balance optimality and feasibility.
MIP search method: dynamic search.
Parallel mode: deterministic, using up to 4 threads.
Root relaxation solution time = 0.02 sec. (9.25 ticks)

        Nodes                                         Cuts/
   Node  Left     Objective  IInf  Best Integer    Best Bound    ItCnt     Gap

*     0+    0                            0.0000    12473.0000              --- 
*     0+    0                         1134.0000    12473.0000           999.91%
      0     0     3395.5617    12     1134.0000     3395.5617      427  199.43%
      0     0     2888.4392    75     1134.0000     Cuts: 158      768  154.71%
*     0+    0                         2204.0000     2888.4392            31.05%
      0     0     2630.6040   132     2204.0000     Cuts: 158     1251   19.36%
      0     0     2530.9490   312     2204.0000     Cuts: 158     1583   14.83%
*     0+    0                         2235.0000     2530.9490            13.24%
      0     0     2446.5759   419     2235.0000     Cuts: 158     1983    9.47%
      0     0     2405.6761   416     2235.0000     Cuts: 158     2259    7.64%
*     0+    0                         2262.0000     2405.6761             6.35%
      0     0     2379.9364   459     2262.0000     Cuts: 158     2529    5.21%
      0     0     2346.0830   540     2262.0000     Cuts: 123     2751    3.72%
*     0+    0                         2263.0000     2346.0830             3.67%
      0     0        cutoff           2263.0000     2263.0000     2885    0.00%
Elapsed time = 0.97 sec. (521.31 ticks, tree = 0.01 MB, solutions = 6)

Clique cuts applied:  485
Cover cuts applied:  17
Implied bound cuts applied:  29
Flow cuts applied:  5
Mixed integer rounding cuts applied:  57
Zero-half cuts applied:  19

Root node processing (before b&c):
  Real time             =    0.97 sec. (521.52 ticks)
Parallel b&c, 4 threads:
  Real time             =    0.00 sec. (0.00 ticks)
  Sync time (average)   =    0.00 sec.
  Wait time (average)   =    0.00 sec.
                          ------------
Total (root+branch&cut) =    0.97 sec. (521.52 ticks)
